(set-option :print-success false)
(set-logic QF_UF)
(declare-sort x58 0)
(declare-sort x77 0)
(declare-fun x55 () x77)
(declare-fun x97 () x77)
(declare-fun x39 (x77 x77) x77)
(declare-fun x47 () x77)
(declare-fun x18 () x77)
(declare-fun x61 () x77)
(declare-fun x35 (x77 x77) x77)
(assert (or (or (or (= (x35 x18 x18) x18) (or (= x61 (x35 x61 x61)) (= x47 (x35 x47 x47)))) (= x97 (x35 x97 x97))) (= (x35 x55 x55) x55)))
(assert (let ((x83 (x35 x18 x18)) (x38 (x35 x97 x61)) (x70 (x35 x97 x97)) (x148 (x35 x47 x61)) (x154 (x35 x61 x97)) (x13 (x35 x18 x97)) (x65 (x35 x47 x18)) (x121 (x35 x55 x47)) (x15 (x35 x97 x55)) (x14 (x35 x61 x47)) (x149 (x35 x97 x47)) (x152 (x35 x61 x61)) (x118 (x35 x55 x55)) (x10 (x35 x47 x47)) (x59 (x35 x47 x97)) (x86 (x35 x55 x61)) (x44 (x35 x61 x55)) (x82 (x35 x55 x18)) (x124 (x35 x47 x55)) (x12 (x35 x97 x18)) (x63 (x35 x18 x47)) (x129 (x35 x55 x97)) (x56 (x35 x18 x55)) (x157 (x35 x18 x61)) (x122 (x35 x61 x18))) (or (or (or (or (and (and (and (= x122 x157) (and (= x152 x152) (= x148 x14))) (= x154 x38)) (= x86 x44)) (and (and (and (and (= x14 x148) (= x10 x10)) (= x63 x65)) (= x59 x149)) (= x124 x121))) (and (and (= x12 x13) (and (= x83 x83) (and (= x63 x65) (= x122 x157)))) (= x56 x82))) (and (and (and (and (= x59 x149) (= x38 x154)) (= x13 x12)) (= x70 x70)) (= x129 x15))) (and (and (= x15 x129) (and (= x82 x56) (and (= x121 x124) (= x44 x86)))) (= x118 x118)))))
(assert (and (and (and (or (= (x35 (x35 x55 x18) x18) x55) (or (or (or (= (x35 (x35 x61 x18) x18) x61) (= (x35 (x35 x47 x18) x18) x47)) (= (x35 (x35 x18 x18) x18) x18)) (= (x35 (x35 x97 x18) x18) x97))) (and (or (= (x35 (x35 x55 x61) x61) x55) (or (or (or (= (x35 (x35 x47 x61) x61) x47) (= (x35 (x35 x61 x61) x61) x61)) (= (x35 (x35 x18 x61) x61) x18)) (= (x35 (x35 x97 x61) x61) x97))) (or (or (= x97 (x35 (x35 x97 x47) x47)) (or (= x18 (x35 (x35 x18 x47) x47)) (or (= (x35 (x35 x47 x47) x47) x47) (= x61 (x35 (x35 x61 x47) x47))))) (= x55 (x35 (x35 x55 x47) x47))))) (or (or (= (x35 (x35 x97 x97) x97) x97) (or (or (= x61 (x35 (x35 x61 x97) x97)) (= x47 (x35 (x35 x47 x97) x97))) (= x18 (x35 (x35 x18 x97) x97)))) (= x55 (x35 (x35 x55 x97) x97)))) (or (= x55 (x35 (x35 x55 x55) x55)) (or (= (x35 (x35 x97 x55) x55) x97) (or (or (= (x35 (x35 x47 x55) x55) x47) (= x61 (x35 (x35 x61 x55) x55))) (= x18 (x35 (x35 x18 x55) x55)))))))
(assert (or (or (and (and (not (= x97 (x35 (x35 x97 x97) x97))) (and (not (= (x35 (x35 x97 x18) x97) x18)) (and (not (= x61 (x35 (x35 x97 x61) x97))) (not (= x47 (x35 (x35 x97 x47) x97)))))) (not (= (x35 (x35 x97 x55) x97) x55))) (or (and (not (= x55 (x35 (x35 x18 x55) x18))) (and (not (= (x35 (x35 x18 x97) x18) x97)) (and (not (= (x35 (x35 x18 x18) x18) x18)) (and (not (= x61 (x35 (x35 x18 x61) x18))) (not (= (x35 (x35 x18 x47) x18) x47)))))) (or (and (and (and (not (= (x35 (x35 x61 x18) x61) x18)) (and (not (= x47 (x35 (x35 x61 x47) x61))) (not (= (x35 (x35 x61 x61) x61) x61)))) (not (= (x35 (x35 x61 x97) x61) x97))) (not (= (x35 (x35 x61 x55) x61) x55))) (and (not (= x55 (x35 (x35 x47 x55) x47))) (and (and (and (not (= (x35 (x35 x47 x61) x47) x61)) (not (= (x35 (x35 x47 x47) x47) x47))) (not (= x18 (x35 (x35 x47 x18) x47)))) (not (= x97 (x35 (x35 x47 x97) x47)))))))) (and (and (not (= (x35 (x35 x55 x97) x55) x97)) (and (not (= (x35 (x35 x55 x18) x55) x18)) (and (not (= (x35 (x35 x55 x61) x55) x61)) (not (= x47 (x35 (x35 x55 x47) x55)))))) (not (= (x35 (x35 x55 x55) x55) x55)))))
(assert (let ((x80 (x35 x97 x55)) (x15 (x35 x61 x55)) (x121 (x35 x47 x55)) (x69 (x35 x97 x97)) (x65 (x35 x18 x47)) (x8 (x35 x55 x97)) (x141 (x35 x18 x18)) (x132 (x35 x18 x97)) (x45 (x35 x55 x61)) (x14 (x35 x47 x47)) (x122 (x35 x97 x47)) (x42 (x35 x18 x55)) (x149 (x35 x55 x47)) (x44 (x35 x61 x61)) (x9 (x35 x97 x61)) (x152 (x35 x61 x47)) (x130 (x35 x55 x18)) (x154 (x35 x47 x61)) (x40 (x35 x97 x18)) (x13 (x35 x47 x18)) (x62 (x35 x18 x61)) (x106 (x35 x55 x55)) (x129 (x35 x61 x97)) (x70 (x35 x47 x97)) (x56 (x35 x61 x18))) (let ((x155 (= x122 x97)) (x93 (= x97 x141)) (x150 (= x55 x149)) (x76 (= x61 x62)) (x89 (= x149 x97)) (x20 (= x61 x9)) (x84 (= x18 x70)) (x81 (= x97 x121)) (x143 (= x47 x69)) (x134 (= x18 x80)) (x123 (= x55 x69)) (x50 (= x15 x47)) (x137 (= x152 x97)) (x11 (= x9 x55)) (x115 (= x61 x130)) (x33 (= x18 x152)) (x158 (= x154 x97)) (x111 (= x18 x62)) (x101 (= x55 x65)) (x86 (= x47 x44)) (x79 (= x13 x18)) (x31 (= x129 x97)) (x105 (= x65 x18)) (x16 (= x97 x9)) (x52 (= x154 x55)) (x113 (= x47 x129)) (x5 (= x61 x40)) (x102 (= x55 x130)) (x2 (= x152 x55)) (x3 (= x122 x61)) (x146 (= x55 x70)) (x145 (= x121 x61)) (x32 (= x47 x70)) (x144 (= x97 x106)) (x95 (= x65 x97)) (x125 (= x149 x18)) (x48 (= x55 x56)) (x60 (= x55 x40)) (x26 (= x97 x42)) (x127 (= x61 x129)) (x140 (= x18 x154)) (x157 (= x122 x47)) (x68 (= x44 x55)) (x159 (= x141 x47)) (x87 (= x141 x55)) (x100 (= x55 x15)) (x34 (= x121 x47)) (x24 (= x80 x97)) (x73 (= x55 x129)) (x104 (= x61 x42)) (x66 (= x141 x61)) (x27 (= x122 x55)) (x21 (= x132 x47)) (x110 (= x97 x56)) (x19 (= x8 x97)) (x96 (= x55 x62)) (x126 (= x61 x69)) (x153 (= x45 x97)) (x136 (= x55 x106)) (x12 (= x61 x154)) (x75 (= x55 x13)) (x71 (= x69 x97)) (x92 (= x40 x47)) (x63 (= x47 x65)) (x138 (= x47 x106)) (x133 (= x18 x130)) (x147 (= x18 x129)) (x131 (= x42 x47)) (x54 (= x97 x14)) (x91 (= x9 x47)) (x119 (= x149 x61)) (x139 (= x18 x141)) (x94 (= x47 x80)) (x53 (= x61 x132)) (x49 (= x13 x61)) (x85 (= x45 x47)) (x78 (= x8 x61)) (x107 (= x18 x132)) (x88 (= x62 x47)) (x46 (= x56 x61)) (x124 (= x152 x61)) (x156 (= x55 x80)) (x120 (= x47 x130)) (x128 (= x80 x61)) (x103 (= x9 x18)) (x148 (= x47 x152)) (x90 (= x106 x18)) (x10 (= x14 x47)) (x83 (= x47 x149)) (x99 (= x18 x45)) (x17 (= x15 x61)) (x72 (= x55 x121)) (x1 (= x97 x130)) (x4 (= x45 x61)) (x36 (= x61 x106)) (x74 (= x13 x97)) (x116 (= x122 x18)) (x43 (= x44 x97)) (x98 (= x40 x18)) (x118 (= x65 x61)) (x108 (= x44 x18)) (x151 (= x13 x47)) (x28 (= x97 x15)) (x109 (= x56 x47)) (x112 (= x18 x56)) (x57 (= x97 x70)) (x117 (= x8 x47)) (x82 (= x44 x61)) (x135 (= x14 x55)) (x64 (= x42 x18)) (x25 (= x18 x8)) (x6 (= x14 x18)) (x38 (= x154 x47)) (x22 (= x42 x55)) (x7 (= x55 x132)) (x59 (= x61 x14)) (x30 (= x18 x15)) (x29 (= x8 x55)) (x41 (= x55 x45)) (x142 (= x40 x97)) (x37 (= x62 x97)) (x67 (= x70 x61)) (x114 (= x18 x69)) (x23 (= x18 x121)) (x51 (= x97 x132))) (and (and (or (or (and (not x29) x144) (or (or (or (and (not x78) x153) (and x89 (not x117))) (and (not x25) x1)) (and (not x19) x19))) (or (or (and x24 (not x123)) (or (and (not x71) x71) (or (or (and x16 (not x126)) (and x155 (not x143))) (and (not x114) x142)))) (or (or (or (and x81 (not x146)) (or (and x57 (not x57)) (or (or (and x54 (not x32)) (and (not x67) x158)) (and x74 (not x84))))) (or (and x28 (not x73)) (or (or (or (and x43 (not x127)) (and (not x113) x137)) (and x110 (not x147))) (and x31 (not x31))))) (or (and (not x7) x26) (or (or (or (and (not x21) x95) (and x37 (not x53))) (and (not x107) x93)) (and x51 (not x51))))))) (and (and (or (or (or (or (or (and (not x52) x145) (or (or (and x49 (not x140)) (or (and x59 (not x38)) (and x12 (not x12)))) (and (not x158) x67))) (or (or (or (or (and x82 (not x82)) (and (not x86) x124)) (and (not x108) x46)) (and x127 (not x43))) (and (not x68) x17))) (or (or (and (not x37) x53) (or (and x66 (not x111)) (or (and x76 (not x76)) (and x118 (not x88))))) (and x104 (not x96)))) (or (and (not x11) x128) (or (and (not x16) x126) (or (and x5 (not x103)) (or (and x20 (not x20)) (and (not x91) x3)))))) (or (and (not x41) x36) (or (or (or (and (not x85) x119) (and x4 (not x4))) (and (not x99) x115)) (and x78 (not x153))))) (or (or (or (or (or (and (not x119) x85) (and x83 (not x83))) (and x120 (not x125))) (and (not x89) x117)) (and x138 (not x150))) (or (or (and (not x27) x94) (or (and x143 (not x155)) (or (or (and x157 (not x157)) (and x91 (not x3))) (and x92 (not x116))))) (or (or (or (and (not x135) x34) (or (and x32 (not x54)) (or (or (and x38 (not x59)) (and x10 (not x10))) (and x151 (not x6))))) (or (and x50 (not x2)) (or (or (and (not x33) x109) (or (and x148 (not x148)) (and x86 (not x124)))) (and (not x137) x113)))) (or (or (and (not x95) x21) (or (and x159 (not x105)) (or (and (not x118) x88) (and (not x63) x63)))) (and x131 (not x101))))))) (or (or (and (not x102) x90) (or (or (or (and (not x115) x99) (and x125 (not x120))) (and (not x133) x133)) (and x25 (not x1)))) (or (or (or (or (and x98 (not x98)) (or (and x103 (not x5)) (and (not x92) x116))) (and x114 (not x142))) (and x134 (not x60))) (or (or (or (or (or (or (and x140 (not x49)) (and (not x151) x6)) (and (not x79) x79)) (and (not x74) x84)) (and (not x75) x23)) (or (or (or (and x112 (not x112)) (or (and x33 (not x109)) (and (not x46) x108))) (and x147 (not x110))) (and x30 (not x48)))) (or (and (not x87) x64) (or (or (or (and (not x66) x111) (and (not x159) x105)) (and x139 (not x139))) (and (not x93) x107)))))))) (or (or (or (and x156 (not x156)) (or (and x123 (not x24)) (or (or (and (not x128) x11) (and (not x94) x27)) (and (not x134) x60)))) (or (or (or (or (and x73 (not x28)) (or (or (and x2 (not x50)) (and x68 (not x17))) (and x48 (not x30)))) (and (not x100) x100)) (or (and (not x72) x72) (or (or (and (not x23) x75) (or (and x52 (not x145)) (and (not x34) x135))) (and x146 (not x81))))) (or (and (not x22) x22) (or (and x7 (not x26)) (or (or (and x96 (not x104)) (and (not x131) x101)) (and x87 (not x64))))))) (or (or (or (or (and x41 (not x36)) (and x150 (not x138))) (and (not x90) x102)) (and (not x144) x29)) (and x136 (not x136))))))))
(assert (let ((x149 (= (x35 x55 x55) x55)) (x83 (= (x35 x97 x97) x97)) (x148 (= x61 (x35 x61 x61))) (x122 (= (x35 x18 x18) x18)) (x10 (= x47 (x35 x47 x47)))) (let ((x14 (not x10)) (x152 (not x148)) (x65 (not x83)) (x63 (not x122)) (x157 (not x149))) (or (or (or (and (= x97 (x35 x97 x55)) x157) (or (or (and (= (x35 x97 x18) x97) x63) (or (and (= (x35 x97 x61) x97) x152) (and (= (x35 x97 x47) x97) x14))) (and x65 x83))) (or (or (or (or (and x65 (= x47 (x35 x47 x97))) (or (and x63 (= (x35 x47 x18) x47)) (or (and x10 x14) (and x152 (= x47 (x35 x47 x61)))))) (and x157 (= (x35 x47 x55) x47))) (or (or (or (and (= x61 (x35 x61 x18)) x63) (or (and x152 x148) (and x14 (= x61 (x35 x61 x47))))) (and (= (x35 x61 x97) x61) x65)) (and x157 (= x61 (x35 x61 x55))))) (or (or (and x65 (= (x35 x18 x97) x18)) (or (and x122 x63) (or (and x152 (= (x35 x18 x61) x18)) (and x14 (= x18 (x35 x18 x47)))))) (and (= x18 (x35 x18 x55)) x157)))) (or (or (and (= (x35 x55 x97) x55) x65) (or (and x63 (= (x35 x55 x18) x55)) (or (and x14 (= (x35 x55 x47) x55)) (and (= x55 (x35 x55 x61)) x152)))) (and x149 x157))))))
(assert (or (or (or (and (not (= x18 (x35 x55 (x35 x18 x55)))) (and (not (= x18 (x35 x97 (x35 x18 x97)))) (and (and (not (= x18 (x35 x61 (x35 x18 x61)))) (not (= x18 (x35 x47 (x35 x18 x47))))) (not (= x18 (x35 x18 (x35 x18 x18))))))) (or (and (and (and (not (= (x35 x18 (x35 x61 x18)) x61)) (and (not (= x61 (x35 x61 (x35 x61 x61)))) (not (= x61 (x35 x47 (x35 x61 x47)))))) (not (= (x35 x97 (x35 x61 x97)) x61))) (not (= (x35 x55 (x35 x61 x55)) x61))) (and (and (and (and (not (= x47 (x35 x61 (x35 x47 x61)))) (not (= x47 (x35 x47 (x35 x47 x47))))) (not (= x47 (x35 x18 (x35 x47 x18))))) (not (= x47 (x35 x97 (x35 x47 x97))))) (not (= x47 (x35 x55 (x35 x47 x55))))))) (and (not (= (x35 x55 (x35 x97 x55)) x97)) (and (not (= x97 (x35 x97 (x35 x97 x97)))) (and (and (not (= (x35 x61 (x35 x97 x61)) x97)) (not (= x97 (x35 x47 (x35 x97 x47))))) (not (= (x35 x18 (x35 x97 x18)) x97)))))) (and (and (and (not (= (x35 x18 (x35 x55 x18)) x55)) (and (not (= x55 (x35 x61 (x35 x55 x61)))) (not (= (x35 x47 (x35 x55 x47)) x55)))) (not (= (x35 x97 (x35 x55 x97)) x55))) (not (= (x35 x55 (x35 x55 x55)) x55)))))
(assert (let ((x152 (x35 x97 x97)) (x63 (x35 x55 x55)) (x148 (x35 x18 x18)) (x14 (x35 x61 x61)) (x10 (x35 x47 x47))) (or (and (not (= x55 x63)) (and (not (= x152 x55)) (and (and (not (= x10 x55)) (not (= x55 x14))) (not (= x55 x148))))) (or (or (and (not (= x18 x63)) (and (and (and (not (= x18 x10)) (not (= x14 x18))) (not (= x18 x148))) (not (= x18 x152)))) (or (and (not (= x63 x61)) (and (and (not (= x148 x61)) (and (not (= x14 x61)) (not (= x61 x10)))) (not (= x152 x61)))) (and (and (and (not (= x47 x148)) (and (not (= x47 x10)) (not (= x14 x47)))) (not (= x152 x47))) (not (= x47 x63))))) (and (not (= x97 x63)) (and (not (= x152 x97)) (and (not (= x97 x148)) (and (not (= x10 x97)) (not (= x97 x14))))))))))
(assert (let ((x121 (x35 x61 x97)) (x124 (x35 x18 x97)) (x59 (x35 x47 x18)) (x63 (x35 x55 x47)) (x129 (x35 x18 x55)) (x13 (x35 x55 x18)) (x82 (x35 x47 x55)) (x148 (x35 x18 x47)) (x12 (x35 x97 x18)) (x15 (x35 x97 x55)) (x38 (x35 x61 x18)) (x70 (x35 x47 x97)) (x152 (x35 x97 x47)) (x44 (x35 x55 x97)) (x56 (x35 x61 x55)) (x154 (x35 x18 x18)) (x118 (x35 x55 x55)) (x83 (x35 x97 x61)) (x122 (x35 x18 x61)) (x157 (x35 x61 x61)) (x10 (x35 x47 x47)) (x86 (x35 x97 x97)) (x149 (x35 x55 x61)) (x14 (x35 x61 x47)) (x65 (x35 x47 x61))) (and (and (and (and (and (not (= x15 x12)) (and (and (and (not (= x86 x83)) (and (not (= x12 x83)) (and (and (not (= x86 x152)) (and (not (= x83 x152)) (not (= x12 x152)))) (not (= x15 x152))))) (not (= x15 x83))) (not (= x12 x86)))) (not (= x86 x15))) (and (and (and (not (= x70 x82)) (and (and (not (= x70 x59)) (and (not (= x65 x82)) (and (not (= x65 x70)) (and (and (not (= x82 x10)) (and (and (not (= x10 x65)) (not (= x59 x10))) (not (= x10 x70)))) (not (= x59 x65)))))) (not (= x82 x59)))) (and (not (= x121 x56)) (and (not (= x38 x56)) (and (and (not (= x56 x157)) (and (not (= x157 x121)) (and (not (= x157 x38)) (and (not (= x56 x14)) (and (not (= x14 x121)) (and (not (= x14 x157)) (not (= x14 x38)))))))) (not (= x38 x121)))))) (and (not (= x129 x124)) (and (not (= x154 x129)) (and (and (and (and (and (not (= x129 x148)) (and (not (= x148 x124)) (and (not (= x154 x148)) (not (= x122 x148))))) (not (= x154 x122))) (not (= x122 x124))) (not (= x122 x129))) (not (= x154 x124))))))) (and (not (= x44 x118)) (and (and (and (and (not (= x44 x149)) (and (not (= x13 x149)) (and (not (= x118 x63)) (and (and (not (= x63 x149)) (not (= x63 x13))) (not (= x63 x44)))))) (not (= x118 x149))) (not (= x13 x44))) (not (= x13 x118))))) (and (and (and (not (= x44 x86)) (and (and (and (and (not (= x121 x86)) (and (not (= x121 x124)) (and (and (and (not (= x121 x70)) (not (= x70 x124))) (not (= x70 x86))) (not (= x70 x44))))) (not (= x121 x44))) (not (= x86 x124))) (not (= x44 x124)))) (and (and (and (and (not (= x122 x149)) (and (and (and (not (= x157 x83)) (and (not (= x122 x157)) (and (not (= x149 x65)) (and (and (not (= x65 x122)) (not (= x65 x157))) (not (= x83 x65)))))) (not (= x149 x157))) (not (= x122 x83)))) (not (= x149 x83))) (and (and (and (and (and (and (not (= x14 x148)) (and (and (not (= x10 x152)) (and (not (= x10 x148)) (not (= x10 x14)))) (not (= x10 x63)))) (not (= x152 x14))) (not (= x63 x14))) (not (= x148 x152))) (not (= x148 x63))) (not (= x63 x152)))) (and (and (not (= x13 x154)) (and (not (= x154 x12)) (and (and (not (= x12 x38)) (and (not (= x38 x154)) (and (and (and (not (= x38 x59)) (not (= x59 x154))) (not (= x12 x59))) (not (= x13 x59))))) (not (= x38 x13))))) (not (= x13 x12))))) (and (not (= x118 x15)) (and (and (not (= x129 x15)) (and (and (not (= x15 x56)) (and (not (= x56 x129)) (and (and (and (not (= x82 x56)) (not (= x82 x129))) (not (= x15 x82))) (not (= x118 x82))))) (not (= x118 x56)))) (not (= x129 x118))))))))
(assert (not (and (= (x35 x55 x55) x47) (and (and (and (and (and (and (= (x35 x97 x97) x97) (and (= x55 (x35 x97 x18)) (and (= (x35 x97 x61) x47) (and (and (and (and (and (= (x35 x18 x61) x61) (and (and (and (= (x35 x61 x97) x18) (and (and (and (and (and (and (and (= (x35 x47 x47) x55) (= (x35 x47 x61) x18)) (= (x35 x47 x18) x61)) (= x47 (x35 x47 x97))) (= x97 (x35 x47 x55))) (= (x35 x61 x47) x61)) (= x97 (x35 x61 x61))) (= x47 (x35 x61 x18)))) (= x55 (x35 x61 x55))) (= x47 (x35 x18 x47)))) (= (x35 x18 x18) x97)) (= (x35 x18 x97) x55)) (= (x35 x18 x55) x18)) (= (x35 x97 x47) x18))))) (= x61 (x35 x97 x55))) (= (x35 x55 x47) x97)) (= x55 (x35 x55 x61))) (= x18 (x35 x55 x18))) (= x61 (x35 x55 x97))))))
(assert (and (and (and (and (not (= x61 x55)) (and (not (= x97 x61)) (and (and (not (= x55 x47)) (and (and (not (= x47 x61)) (not (= x18 x47))) (not (= x47 x97)))) (not (= x18 x61))))) (not (= x18 x97))) (not (= x18 x55))) (not (= x97 x55))))
(assert (let ((x38 (x35 x18 x61)) (x124 (x35 x97 x18)) (x122 (x35 x61 x18)) (x121 (x35 x97 x61)) (x44 (x35 x97 x55)) (x63 (x35 x47 x55)) (x149 (x35 x61 x55)) (x154 (x35 x18 x18)) (x82 (x35 x55 x47)) (x59 (x35 x18 x47)) (x152 (x35 x47 x97)) (x12 (x35 x18 x97)) (x86 (x35 x97 x97)) (x56 (x35 x55 x61)) (x70 (x35 x97 x47)) (x15 (x35 x55 x97)) (x13 (x35 x18 x55)) (x10 (x35 x47 x47)) (x65 (x35 x61 x47)) (x83 (x35 x61 x97)) (x129 (x35 x55 x18)) (x148 (x35 x47 x18)) (x157 (x35 x61 x61)) (x14 (x35 x47 x61)) (x118 (x35 x55 x55))) (and (and (and (and (and (and (and (and (or (or (or (= x10 x18) (or (= x10 x61) (= x10 x47))) (= x97 x10)) (= x10 x55)) (or (= x14 x55) (or (= x97 x14) (or (= x14 x18) (or (= x14 x47) (= x61 x14)))))) (or (or (or (= x148 x18) (or (= x148 x61) (= x47 x148))) (= x97 x148)) (= x55 x148))) (or (or (or (= x18 x152) (or (= x152 x47) (= x152 x61))) (= x152 x97)) (= x152 x55))) (or (= x63 x55) (or (or (= x18 x63) (or (= x61 x63) (= x47 x63))) (= x63 x97)))) (and (or (= x149 x55) (or (= x97 x149) (or (or (= x149 x61) (= x149 x47)) (= x18 x149)))) (and (and (or (or (= x97 x122) (or (= x18 x122) (or (= x122 x61) (= x47 x122)))) (= x55 x122)) (and (or (= x55 x157) (or (= x97 x157) (or (= x18 x157) (or (= x157 x47) (= x157 x61))))) (or (= x65 x55) (or (= x65 x97) (or (= x65 x18) (or (= x65 x47) (= x61 x65))))))) (or (or (= x97 x83) (or (= x18 x83) (or (= x61 x83) (= x47 x83)))) (= x83 x55))))) (and (or (or (or (= x18 x13) (or (= x47 x13) (= x13 x61))) (= x13 x97)) (= x55 x13)) (and (or (= x12 x55) (or (= x97 x12) (or (= x12 x18) (or (= x61 x12) (= x47 x12))))) (and (or (or (= x97 x154) (or (or (= x154 x61) (= x47 x154)) (= x154 x18))) (= x154 x55)) (and (or (or (or (or (= x38 x61) (= x38 x47)) (= x18 x38)) (= x38 x97)) (= x55 x38)) (or (= x55 x59) (or (or (= x59 x18) (or (= x61 x59) (= x59 x47))) (= x97 x59)))))))) (and (and (and (and (or (or (= x97 x121) (or (= x18 x121) (or (= x121 x47) (= x61 x121)))) (= x121 x55)) (or (or (= x97 x70) (or (= x70 x18) (or (= x70 x47) (= x70 x61)))) (= x55 x70))) (or (= x124 x55) (or (= x124 x97) (or (or (= x124 x61) (= x47 x124)) (= x18 x124))))) (or (= x86 x55) (or (or (or (= x86 x61) (= x86 x47)) (= x18 x86)) (= x86 x97)))) (or (= x44 x55) (or (or (= x18 x44) (or (= x44 x47) (= x61 x44))) (= x97 x44))))) (and (and (and (or (or (or (= x18 x129) (or (= x61 x129) (= x47 x129))) (= x97 x129)) (= x55 x129)) (and (or (or (= x97 x82) (or (= x82 x18) (or (= x82 x47) (= x82 x61)))) (= x55 x82)) (or (or (= x97 x56) (or (or (= x56 x47) (= x61 x56)) (= x18 x56))) (= x55 x56)))) (or (= x15 x55) (or (= x97 x15) (or (= x15 x18) (or (= x61 x15) (= x47 x15)))))) (or (= x118 x55) (or (or (or (= x61 x118) (= x118 x47)) (= x118 x18)) (= x97 x118)))))))
(assert (let ((x56 (x35 x61 x55)) (x62 (x35 x55 x61)) (x147 (x35 x55 x97)) (x17 (x35 x55 x55)) (x63 (x35 x47 x97)) (x65 (x35 x47 x55)) (x8 (x35 x18 x18)) (x83 (x35 x18 x47)) (x148 (x35 x47 x61)) (x44 (x35 x61 x18)) (x14 (x35 x47 x47)) (x82 (x35 x61 x97)) (x152 (x35 x47 x18)) (x149 (x35 x97 x47)) (x57 (x35 x97 x97)) (x137 (x35 x97 x55)) (x79 (x35 x97 x18)) (x33 (x35 x55 x18)) (x6 (x35 x18 x55)) (x122 (x35 x61 x47)) (x59 (x35 x55 x47)) (x88 (x35 x97 x61)) (x86 (x35 x61 x61)) (x106 (x35 x18 x97)) (x118 (x35 x18 x61))) (let ((x91 (= x97 x86)) (x1 (= x55 x106)) (x116 (= x97 x8)) (x20 (= x55 x148)) (x70 (= x148 x47)) (x150 (= x59 x55)) (x64 (= x56 x18)) (x85 (= x47 x44)) (x109 (= x83 x18)) (x99 (= x88 x47)) (x134 (= x56 x97)) (x100 (= x61 x17)) (x146 (= x47 x137)) (x7 (= x6 x18)) (x67 (= x149 x61)) (x139 (= x97 x44)) (x142 (= x97 x106)) (x11 (= x97 x33)) (x25 (= x55 x57)) (x26 (= x18 x137)) (x110 (= x61 x57)) (x49 (= x61 x8)) (x78 (= x55 x82)) (x123 (= x97 x6)) (x140 (= x44 x61)) (x127 (= x106 x61)) (x68 (= x61 x147)) (x30 (= x61 x56)) (x53 (= x82 x18)) (x15 (= x86 x61)) (x133 (= x63 x47)) (x23 (= x6 x47)) (x132 (= x18 x86)) (x126 (= x82 x97)) (x155 (= x88 x97)) (x60 (= x65 x97)) (x103 (= x118 x55)) (x115 (= x47 x79)) (x119 (= x152 x47)) (x50 (= x61 x33)) (x32 (= x106 x47)) (x28 (= x137 x61)) (x10 (= x47 x14)) (x2 (= x62 x61)) (x144 (= x137 x55)) (x48 (= x65 x61)) (x81 (= x47 x17)) (x69 (= x47 x83)) (x111 (= x97 x118)) (x138 (= x62 x55)) (x98 (= x44 x55)) (x73 (= x61 x6)) (x46 (= x18 x152)) (x125 (= x8 x55)) (x21 (= x18 x79)) (x107 (= x57 x18)) (x114 (= x97 x57)) (x13 (= x122 x47)) (x16 (= x97 x63)) (x93 (= x106 x18)) (x121 (= x86 x47)) (x34 (= x33 x47)) (x112 (= x44 x18)) (x72 (= x59 x61)) (x80 (= x118 x47)) (x141 (= x148 x18)) (x158 (= x47 x57)) (x95 (= x88 x18)) (x38 (= x14 x18)) (x90 (= x56 x55)) (x5 (= x152 x55)) (x156 (= x97 x17)) (x154 (= x97 x14)) (x37 (= x63 x18)) (x19 (= x47 x59)) (x51 (= x149 x97)) (x131 (= x18 x62)) (x52 (= x147 x47)) (x129 (= x61 x148)) (x54 (= x47 x82)) (x74 (= x88 x61)) (x143 (= x97 x79)) (x76 (= x18 x122)) (x31 (= x18 x149)) (x94 (= x62 x97)) (x117 (= x79 x55)) (x12 (= x55 x14)) (x135 (= x47 x62)) (x71 (= x55 x149)) (x104 (= x147 x18)) (x29 (= x55 x6)) (x27 (= x97 x59)) (x130 (= x61 x118)) (x87 (= x18 x65)) (x4 (= x83 x61)) (x45 (= x8 x47)) (x102 (= x65 x55)) (x151 (= x152 x61)) (x159 (= x83 x97)) (x157 (= x61 x14)) (x75 (= x56 x47)) (x66 (= x152 x97)) (x9 (= x55 x122)) (x145 (= x47 x65)) (x105 (= x8 x18)) (x89 (= x55 x88)) (x84 (= x61 x79)) (x113 (= x63 x61)) (x128 (= x147 x97)) (x136 (= x55 x17)) (x36 (= x55 x147)) (x22 (= x17 x18)) (x42 (= x97 x122)) (x101 (= x18 x59)) (x96 (= x18 x33)) (x24 (= x97 x137)) (x124 (= x61 x122)) (x108 (= x118 x18)) (x40 (= x86 x55)) (x41 (= x55 x33)) (x92 (= x83 x55)) (x120 (= x47 x149)) (x153 (= x63 x55)) (x43 (= x82 x61)) (x3 (= x148 x97))) (and (and (and (and (and (and (and (or (or (or x159 (or x42 x154)) x51) x27) (or (or (or x66 (or x3 x154)) x16) x60)) (and (and (or (or x37 (or (or x141 x38) x46)) x87) (or (or x31 (or (or x38 x76) x109)) x101)) (and (and (or x48 (or x113 (or (or x157 x129) x151))) (or (or (or (or x157 x124) x4) x67) x72)) (and (or (or x120 (or x69 (or x13 x10))) x19) (or (or x133 (or (or x70 x10) x119)) x145))))) (and (or (or (or x5 (or x12 x20)) x153) x102) (or (or x71 (or (or x9 x12) x92)) x150))) (and (and (or (or x78 (or x98 (or x40 x9))) x90) (or (or (or (or x20 x40) x103) x89) x138)) (and (and (and (or (or x95 (or (or x132 x141) x108)) x131) (or (or (or (or x132 x76) x112) x53) x64)) (and (and (or (or (or x80 (or x70 x121)) x99) x135) (or (or (or x85 (or x13 x121)) x54) x75)) (and (or x30 (or x43 (or x140 (or x15 x124)))) (or x2 (or (or x130 (or x15 x129)) x74))))) (and (or x134 (or x126 (or (or x42 x91) x139))) (or x94 (or (or (or x91 x3) x111) x155)))))) (and (and (or (or (or x125 (or x98 x5)) x117) x41) (or (or x1 (or (or x103 x92) x125)) x29)) (and (and (and (and (or (or x84 (or (or x151 x140) x49)) x50) (or (or (or x49 (or x4 x130)) x127) x73)) (and (or x34 (or (or (or x119 x85) x45) x115)) (or (or (or (or x80 x69) x45) x32) x23))) (and (or x7 (or (or (or x108 x109) x105) x93)) (or (or x21 (or (or x46 x112) x105)) x96))) (and (or (or (or (or x66 x139) x116) x143) x11) (or (or (or x116 (or x159 x111)) x142) x123))))) (and (and (or (or (or x117 (or x89 x71)) x25) x144) (or x36 (or x25 (or (or x153 x78) x1)))) (and (and (and (or x26 (or x107 (or x21 (or x95 x31)))) (or (or (or x93 (or x37 x53)) x107) x104)) (and (and (or x28 (or x110 (or (or x67 x74) x84))) (or (or x110 (or x127 (or x43 x113))) x68)) (and (or x146 (or x158 (or x115 (or x120 x99)))) (or x52 (or (or x32 (or x133 x54)) x158))))) (and (or (or (or x143 (or x155 x51)) x114) x24) (or x128 (or x114 (or x142 (or x16 x126)))))))) (and (and (or x136 (or (or (or x90 x102) x29) x144)) (or x136 (or x36 (or (or x150 x138) x41)))) (and (and (or (or (or (or x27 x94) x11) x128) x156) (or x156 (or x24 (or (or x60 x134) x123)))) (and (and (or x22 (or (or (or x64 x87) x7) x26)) (or (or (or (or x131 x101) x96) x104) x22)) (and (and (or x81 (or (or (or x145 x75) x23) x146)) (or x81 (or (or x34 (or x135 x19)) x52))) (and (or (or (or (or x30 x48) x73) x28) x100) (or (or x68 (or x50 (or x72 x2))) x100))))))))))
(assert (let ((x20 (x35 x55 x47)) (x141 (x35 x61 x47)) (x112 (x35 x55 x18)) (x46 (x35 x18 x55)) (x79 (x35 x18 x18)) (x3 (x35 x47 x97)) (x45 (x35 x18 x61)) (x88 (x35 x47 x47)) (x132 (x35 x47 x18)) (x4 (x35 x61 x97)) (x92 (x35 x97 x97)) (x8 (x35 x61 x55)) (x42 (x35 x18 x47)) (x85 (x35 x61 x18)) (x9 (x35 x47 x55)) (x76 (x35 x47 x61)) (x91 (x35 x97 x47)) (x98 (x35 x55 x97)) (x109 (x35 x18 x97)) (x130 (x35 x97 x61)) (x80 (x35 x61 x61)) (x106 (x35 x55 x61)) (x5 (x35 x97 x55)) (x108 (x35 x97 x18)) (x67 (x35 x55 x55))) (let ((x113 (= x80 x18)) (x96 (= x88 x55)) (x86 (= x106 x47)) (x110 (= x18 x45)) (x123 (= x108 x55)) (x60 (= x130 x55)) (x87 (= x76 x55)) (x150 (= x55 x20)) (x143 (= x18 x9)) (x127 (= x132 x18)) (x137 (= x76 x18)) (x74 (= x61 x67)) (x33 (= x79 x61)) (x119 (= x80 x61)) (x51 (= x92 x18)) (x145 (= x97 x79)) (x157 (= x45 x47)) (x27 (= x85 x55)) (x75 (= x91 x97)) (x26 (= x55 x132)) (x36 (= x8 x55)) (x111 (= x61 x130)) (x28 (= x97 x46)) (x37 (= x130 x18)) (x136 (= x55 x67)) (x2 (= x97 x109)) (x156 (= x92 x55)) (x83 (= x47 x79)) (x16 (= x106 x18)) (x41 (= x106 x55)) (x100 (= x98 x97)) (x155 (= x18 x20)) (x149 (= x91 x47)) (x57 (= x141 x18)) (x125 (= x61 x20)) (x116 (= x109 x61)) (x30 (= x97 x8)) (x129 (= x98 x47)) (x68 (= x97 x20)) (x142 (= x112 x18)) (x104 (= x55 x141)) (x94 (= x55 x79)) (x93 (= x18 x108)) (x117 (= x18 x67)) (x11 (= x91 x55)) (x14 (= x141 x47)) (x159 (= x61 x3)) (x144 (= x5 x55)) (x138 (= x9 x55)) (x66 (= x4 x61)) (x31 (= x18 x79)) (x147 (= x85 x18)) (x6 (= x61 x42)) (x23 (= x3 x97)) (x54 (= x61 x46)) (x124 (= x9 x47)) (x139 (= x61 x108)) (x89 (= x18 x5)) (x135 (= x97 x132)) (x84 (= x18 x88)) (x126 (= x18 x8)) (x140 (= x61 x45)) (x81 (= x4 x97)) (x63 (= x47 x42)) (x65 (= x47 x132)) (x38 (= x130 x47)) (x52 (= x97 x85)) (x29 (= x98 x55)) (x121 (= x47 x20)) (x50 (= x97 x92)) (x158 (= x5 x61)) (x102 (= x55 x112)) (x128 (= x3 x55)) (x154 (= x4 x47)) (x120 (= x61 x9)) (x53 (= x4 x18)) (x151 (= x132 x61)) (x73 (= x97 x112)) (x107 (= x109 x18)) (x133 (= x112 x61)) (x148 (= x76 x47)) (x49 (= x85 x61)) (x56 (= x47 x46)) (x44 (= x8 x47)) (x115 (= x61 x8)) (x152 (= x80 x47)) (x114 (= x46 x18)) (x118 (= x47 x67)) (x10 (= x88 x47)) (x7 (= x42 x55)) (x1 (= x97 x76)) (x25 (= x80 x97)) (x17 (= x97 x9)) (x101 (= x5 x97)) (x78 (= x97 x141)) (x122 (= x47 x85)) (x40 (= x61 x141)) (x32 (= x98 x61)) (x134 (= x55 x4)) (x43 (= x42 x18)) (x62 (= x88 x61)) (x64 (= x55 x80)) (x15 (= x47 x5)) (x90 (= x55 x46)) (x13 (= x47 x109)) (x103 (= x92 x61)) (x82 (= x47 x112)) (x72 (= x97 x108)) (x69 (= x61 x76)) (x95 (= x91 x18)) (x24 (= x55 x109)) (x131 (= x97 x67)) (x153 (= x88 x97)) (x34 (= x97 x45)) (x22 (= x45 x55)) (x59 (= x3 x47)) (x70 (= x47 x92)) (x21 (= x18 x3)) (x12 (= x108 x47)) (x99 (= x61 x106)) (x19 (= x42 x97)) (x105 (= x61 x91)) (x71 (= x18 x98)) (x146 (= x130 x97)) (x48 (= x106 x97))) (and (and (or (or (and x131 x131) (or (or (or (and x48 x30) (and x68 x17)) (and x73 x28)) (and x100 x101))) (or (or (or (or (or (or (and x52 x34) (or (and x1 x78) (and x25 x25))) (and x146 x81)) (and x30 x48)) (or (or (or (or (and x153 x153) (and x78 x1)) (and x135 x19)) (and x75 x23)) (and x68 x17))) (or (or (or (and x145 x145) (or (and x135 x19) (and x52 x34))) (and x2 x72)) (and x73 x28))) (or (and x100 x101) (or (and x50 x50) (or (or (and x81 x146) (and x75 x23)) (and x72 x2)))))) (and (and (or (or (or (or (or (or (and x105 x159) (and x111 x66)) (and x139 x116)) (and x103 x103)) (and x32 x158)) (or (or (or (or (or (and x49 x140) (or (and x119 x119) (and x69 x40))) (and x111 x66)) (and x115 x99)) (or (or (or (or (and x40 x69) (and x62 x62)) (and x6 x151)) (and x159 x105)) (and x125 x120))) (or (or (and x139 x116) (or (or (and x6 x151) (and x49 x140)) (and x33 x33))) (and x54 x133)))) (or (and x74 x74) (or (and x32 x158) (or (or (and x99 x115) (and x125 x120)) (and x54 x133))))) (or (or (and x118 x118) (or (and x129 x15) (or (or (and x124 x121) (and x44 x86)) (and x56 x82)))) (or (or (and x129 x15) (or (and x70 x70) (or (and x12 x13) (or (and x38 x154) (and x59 x149))))) (or (or (or (and x124 x121) (or (or (and x65 x63) (or (and x14 x148) (and x10 x10))) (and x149 x59))) (or (and x44 x86) (or (and x154 x38) (or (or (and x14 x148) (and x152 x152)) (and x157 x122))))) (or (or (or (and x83 x83) (or (and x65 x63) (and x157 x122))) (and x13 x12)) (and x56 x82)))))) (or (or (or (and x71 x89) (or (and x51 x51) (or (or (and x37 x53) (and x21 x95)) (and x93 x107)))) (or (or (or (or (or (or (and x137 x57) (and x84 x84)) (and x127 x43)) (and x21 x95)) (and x155 x143)) (or (and x126 x16) (or (and x53 x37) (or (and x147 x110) (or (and x113 x113) (and x137 x57)))))) (or (and x114 x142) (or (or (or (and x147 x110) (and x43 x127)) (and x31 x31)) (and x107 x93))))) (or (and x117 x117) (or (or (or (and x143 x155) (and x16 x126)) (and x114 x142)) (and x71 x89)))))) (or (or (or (or (or (or (or (or (and x104 x87) (and x64 x64)) (and x22 x27)) (and x134 x60)) (and x41 x36)) (or (and x138 x150) (or (and x11 x128) (or (or (and x104 x87) (and x96 x96)) (and x26 x7))))) (or (and x102 x90) (or (and x24 x123) (or (or (and x26 x7) (and x22 x27)) (and x94 x94))))) (or (or (or (and x24 x123) (or (and x128 x11) (and x60 x134))) (and x156 x156)) (and x29 x144))) (or (and x136 x136) (or (and x29 x144) (or (or (and x150 x138) (and x36 x41)) (and x90 x102)))))))))
(assert (and (= x55 (x35 x18 x97)) (and (and (= x18 (x35 x47 x61)) (= (x35 x97 x61) x47)) (= x97 (x35 x61 x61)))))
(assert (and (and (or (or (or (or (= x61 (x35 x97 (x35 x97 x61))) (= (x35 x97 (x35 x97 x47)) x47)) (= (x35 x97 (x35 x97 x18)) x18)) (= (x35 x97 (x35 x97 x97)) x97)) (= (x35 x97 (x35 x97 x55)) x55)) (and (and (or (or (or (= (x35 x47 (x35 x47 x18)) x18) (or (= (x35 x47 (x35 x47 x47)) x47) (= (x35 x47 (x35 x47 x61)) x61))) (= x97 (x35 x47 (x35 x47 x97)))) (= x55 (x35 x47 (x35 x47 x55)))) (or (or (or (or (= x61 (x35 x61 (x35 x61 x61))) (= x47 (x35 x61 (x35 x61 x47)))) (= x18 (x35 x61 (x35 x61 x18)))) (= (x35 x61 (x35 x61 x97)) x97)) (= (x35 x61 (x35 x61 x55)) x55))) (or (= (x35 x18 (x35 x18 x55)) x55) (or (= x97 (x35 x18 (x35 x18 x97))) (or (= (x35 x18 (x35 x18 x18)) x18) (or (= x61 (x35 x18 (x35 x18 x61))) (= x47 (x35 x18 (x35 x18 x47))))))))) (or (or (= x97 (x35 x55 (x35 x55 x97))) (or (or (= (x35 x55 (x35 x55 x61)) x61) (= (x35 x55 (x35 x55 x47)) x47)) (= (x35 x55 (x35 x55 x18)) x18))) (= (x35 x55 (x35 x55 x55)) x55))))
(check-sat)
(exit)
